synthesis/lib/bug.txt
 ((phys_in_port$1#9 = 0#9&&phys_in_port$1#9 = phys_out_port$1#9&&phys_drop$1#1 = 0#1&&phys_l3_admit$1#1 = 0#1)
 &&(phys_l3_admit$1#1 = 0#1 || (phys_l3_admit$1#1 = 1#1)))&&((((((((((((((((phys_drop$1#1 = 1#1&&phys_in_port$2#9 = 0#9)&&phys_out_port$2#9 = 0#9)&&phys_dmac$1#48 = 0#48)&&phys_smac$1#48 = 0#48)&&phys_eth_type$1#16 = 0#16)&&phys_mpls_label$1#20 = 0#20)&&phys_ipv4_src$1#32 = 0#32)&&phys_ipv4_dst$1#32 = 0#32)&&phys_ip_proto$1#16 = 0#16)&&phys_ttl$1#8 = 0#8)&&phys_l4_src$1#16 = 0#16)&&phys_l4_dst$1#16 = 0#16)&&phys_icmp_type$1#16 = 0#16)&&phys_icmp_code$1#16 = 0#16)&&phys_vlan_id$1#20 = 0#20)
 || (((((((((((((((~(phys_drop$1#1 = 1#1)&&phys_vlan_id$0#20 = phys_vlan_id$1#20)&&phys_ttl$0#8 = phys_ttl$1#8)&&phys_smac$0#48 = phys_smac$1#48)&&phys_out_port$1#9 = phys_out_port$2#9)&&phys_mpls_label$0#20 = phys_mpls_label$1#20)&&phys_l4_src$0#16 = phys_l4_src$1#16)&&phys_l4_dst$0#16 = phys_l4_dst$1#16)&&phys_ipv4_src$0#32 = phys_ipv4_src$1#32)&&phys_ipv4_dst$0#32 = phys_ipv4_dst$1#32)&&phys_ip_proto$0#16 = phys_ip_proto$1#16)&&phys_in_port$1#9 = phys_in_port$2#9)&&phys_icmp_type$0#16 = phys_icmp_type$1#16)&&phys_icmp_code$0#16 = phys_icmp_code$1#16)&&phys_eth_type$0#16 = phys_eth_type$1#16)&&phys_dmac$0#48 = phys_dmac$1#48)))
